p cnf 965 2478
51 -2 -1 0
-51 2 0
-51 1 0
52 -51 -698 0
-52 51 0
-52 698 0
53 -699 -2 0
-53 699 0
-53 2 0
54 -53 -5 0
-54 53 0
-54 5 0
55 -700 -701 0
-55 700 0
-55 701 0
56 -702 -703 0
-56 702 0
-56 703 0
57 -56 -704 0
-57 56 0
-57 704 0
58 -705 -55 0
-58 705 0
-58 55 0
59 -706 -9 0
-59 706 0
-59 9 0
60 -59 -707 0
-60 59 0
-60 707 0
61 -708 -58 0
-61 708 0
-61 58 0
62 -12 -699 0
-62 12 0
-62 699 0
63 -62 -709 0
-63 62 0
-63 709 0
64 -710 -61 0
-64 710 0
-64 61 0
65 -15 -711 0
-65 15 0
-65 711 0
66 -65 -712 0
-66 65 0
-66 712 0
67 -713 -64 0
-67 713 0
-67 64 0
68 -714 -703 0
-68 714 0
-68 703 0
69 -68 -5 0
-69 68 0
-69 5 0
70 -715 -67 0
-70 715 0
-70 67 0
71 -18 -2 0
-71 18 0
-71 2 0
72 -71 -716 0
-72 71 0
-72 716 0
73 -717 -70 0
-73 717 0
-73 70 0
74 -718 -716 0
-74 718 0
-74 716 0
75 -74 -719 0
-75 74 0
-75 719 0
76 -720 -73 0
-76 720 0
-76 73 0
77 -721 -20 0
-77 721 0
-77 20 0
78 -77 -722 0
-78 77 0
-78 722 0
79 -723 -76 0
-79 723 0
-79 76 0
80 -20 -15 0
-80 20 0
-80 15 0
81 -80 -24 0
-81 80 0
-81 24 0
82 -724 -79 0
-82 724 0
-82 79 0
83 -725 -12 0
-83 725 0
-83 12 0
84 -83 -726 0
-84 83 0
-84 726 0
85 -727 -82 0
-85 727 0
-85 82 0
86 -27 -1 0
-86 27 0
-86 1 0
87 -86 -709 0
-87 86 0
-87 709 0
88 -728 -85 0
-88 728 0
-88 85 0
89 -28 -25 0
-89 28 0
-89 25 0
90 -89 -29 0
-90 89 0
-90 29 0
91 -729 -88 0
-91 729 0
-91 88 0
92 -30 -730 0
-92 30 0
-92 730 0
93 -92 -31 0
-93 92 0
-93 31 0
94 -731 -91 0
-94 731 0
-94 91 0
95 -32 -732 0
-95 32 0
-95 732 0
96 -95 -21 0
-96 95 0
-96 21 0
97 -733 -94 0
-97 733 0
-97 94 0
98 -28 -4 0
-98 28 0
-98 4 0
99 -98 -734 0
-99 98 0
-99 734 0
100 -735 -97 0
-100 735 0
-100 97 0
101 -33 -736 0
-101 33 0
-101 736 0
102 -101 -5 0
-102 101 0
-102 5 0
103 -737 -100 0
-103 737 0
-103 100 0
104 -738 -719 0
-104 738 0
-104 719 0
105 -104 -704 0
-105 104 0
-105 704 0
106 -739 -103 0
-106 739 0
-106 103 0
107 -34 -29 0
-107 34 0
-107 29 0
108 -107 -712 0
-108 107 0
-108 712 0
109 -740 -106 0
-109 740 0
-109 106 0
110 -35 -711 0
-110 35 0
-110 711 0
111 -110 -741 0
-111 110 0
-111 741 0
112 -742 -109 0
-112 742 0
-112 109 0
113 -104 -37 0
-113 104 0
-113 37 0
114 -743 -112 0
-114 743 0
-114 112 0
115 -744 -29 0
-115 744 0
-115 29 0
116 -115 -13 0
-116 115 0
-116 13 0
117 -745 -114 0
-117 745 0
-117 114 0
118 -725 -719 0
-118 725 0
-118 719 0
119 -118 -704 0
-119 118 0
-119 704 0
120 -746 -117 0
-120 746 0
-120 117 0
121 -725 -5 0
-121 725 0
-121 5 0
122 -121 -726 0
-122 121 0
-122 726 0
123 -747 -120 0
-123 747 0
-123 120 0
124 -748 -718 0
-124 748 0
-124 718 0
125 -124 -21 0
-125 124 0
-125 21 0
126 -749 -123 0
-126 749 0
-126 123 0
127 -28 -704 0
-127 28 0
-127 704 0
128 -127 -16 0
-128 127 0
-128 16 0
129 -750 -126 0
-129 750 0
-129 126 0
130 -738 -711 0
-130 738 0
-130 711 0
131 -130 -716 0
-131 130 0
-131 716 0
132 -751 -129 0
-132 751 0
-132 129 0
133 -41 -40 0
-133 41 0
-133 40 0
134 -133 -8 0
-134 133 0
-134 8 0
135 -752 -132 0
-135 752 0
-135 132 0
136 -753 -37 0
-136 753 0
-136 37 0
137 -136 -5 0
-137 136 0
-137 5 0
138 -754 -135 0
-138 754 0
-138 135 0
139 -6 -1 0
-139 6 0
-139 1 0
140 -139 -41 0
-140 139 0
-140 41 0
141 -755 -138 0
-141 755 0
-141 138 0
142 -25 -14 0
-142 25 0
-142 14 0
143 -142 -10 0
-143 142 0
-143 10 0
144 -756 -141 0
-144 756 0
-144 141 0
145 -757 -25 0
-145 757 0
-145 25 0
146 -145 -10 0
-146 145 0
-146 10 0
147 -758 -144 0
-147 758 0
-147 144 0
148 -714 -10 0
-148 714 0
-148 10 0
149 -148 -26 0
-149 148 0
-149 26 0
150 -759 -147 0
-150 759 0
-150 147 0
151 -42 -725 0
-151 42 0
-151 725 0
152 -151 -719 0
-152 151 0
-152 719 0
153 -760 -150 0
-153 760 0
-153 150 0
154 -761 -699 0
-154 761 0
-154 699 0
155 -154 -762 0
-155 154 0
-155 762 0
156 -763 -153 0
-156 763 0
-156 153 0
157 -33 -757 0
-157 33 0
-157 757 0
158 -157 -44 0
-158 157 0
-158 44 0
159 -764 -156 0
-159 764 0
-159 156 0
160 -45 -22 0
-160 45 0
-160 22 0
161 -160 -765 0
-161 160 0
-161 765 0
162 -766 -159 0
-162 766 0
-162 159 0
163 -767 -716 0
-163 767 0
-163 716 0
164 -163 -768 0
-164 163 0
-164 768 0
165 -769 -162 0
-165 769 0
-165 162 0
166 -770 -771 0
-166 770 0
-166 771 0
167 -166 -27 0
-167 166 0
-167 27 0
168 -772 -165 0
-168 772 0
-168 165 0
169 -25 -12 0
-169 25 0
-169 12 0
170 -169 -24 0
-170 169 0
-170 24 0
171 -773 -168 0
-171 773 0
-171 168 0
172 -22 -9 0
-172 22 0
-172 9 0
173 -172 -10 0
-173 172 0
-173 10 0
174 -774 -171 0
-174 774 0
-174 171 0
175 -704 -775 0
-175 704 0
-175 775 0
176 -175 -16 0
-176 175 0
-176 16 0
177 -776 -174 0
-177 776 0
-177 174 0
178 -46 -43 0
-178 46 0
-178 43 0
179 -178 -707 0
-179 178 0
-179 707 0
180 -777 -177 0
-180 777 0
-180 177 0
181 -778 -25 0
-181 778 0
-181 25 0
182 -181 -702 0
-182 181 0
-182 702 0
183 -779 -180 0
-183 779 0
-183 180 0
184 -42 -40 0
-184 42 0
-184 40 0
185 -184 -736 0
-185 184 0
-185 736 0
186 -780 -183 0
-186 780 0
-186 183 0
187 -48 -43 0
-187 48 0
-187 43 0
188 -187 -7 0
-188 187 0
-188 7 0
189 -781 -186 0
-189 781 0
-189 186 0
190 -46 -38 0
-190 46 0
-190 38 0
191 -190 -712 0
-191 190 0
-191 712 0
192 -782 -189 0
-192 782 0
-192 189 0
193 -738 -31 0
-193 738 0
-193 31 0
194 -193 -3 0
-194 193 0
-194 3 0
195 -783 -192 0
-195 783 0
-195 192 0
196 -41 -8 0
-196 41 0
-196 8 0
197 -196 -722 0
-197 196 0
-197 722 0
198 -784 -195 0
-198 784 0
-198 195 0
199 -771 -14 0
-199 771 0
-199 14 0
200 -199 -785 0
-200 199 0
-200 785 0
201 -786 -198 0
-201 786 0
-201 198 0
202 -47 -757 0
-202 47 0
-202 757 0
203 -202 -709 0
-203 202 0
-203 709 0
204 -787 -201 0
-204 787 0
-204 201 0
205 -15 -6 0
-205 15 0
-205 6 0
206 -205 -707 0
-206 205 0
-206 707 0
207 -788 -204 0
-207 788 0
-207 204 0
208 -744 -25 0
-208 744 0
-208 25 0
209 -208 -23 0
-209 208 0
-209 23 0
210 -789 -207 0
-210 789 0
-210 207 0
211 -24 -718 0
-211 24 0
-211 718 0
212 -211 -790 0
-212 211 0
-212 790 0
213 -791 -210 0
-213 791 0
-213 210 0
214 -748 -699 0
-214 748 0
-214 699 0
215 -214 -792 0
-215 214 0
-215 792 0
216 -793 -213 0
-216 793 0
-216 213 0
217 -778 -753 0
-217 778 0
-217 753 0
218 -217 -712 0
-218 217 0
-218 712 0
219 -794 -216 0
-219 794 0
-219 216 0
220 -718 -1 0
-220 718 0
-220 1 0
221 -220 -21 0
-221 220 0
-221 21 0
222 -795 -219 0
-222 795 0
-222 219 0
223 -736 -9 0
-223 736 0
-223 9 0
224 -223 -796 0
-224 223 0
-224 796 0
225 -797 -222 0
-225 797 0
-225 222 0
226 -716 -18 0
-226 716 0
-226 18 0
227 -226 -768 0
-227 226 0
-227 768 0
228 -798 -225 0
-228 798 0
-228 225 0
229 -12 -10 0
-229 12 0
-229 10 0
230 -229 -19 0
-230 229 0
-230 19 0
231 -799 -228 0
-231 799 0
-231 228 0
232 -771 -21 0
-232 771 0
-232 21 0
233 -232 -800 0
-233 232 0
-233 800 0
234 -801 -231 0
-234 801 0
-234 231 0
235 -738 -20 0
-235 738 0
-235 20 0
236 -235 -790 0
-236 235 0
-236 790 0
237 -802 -234 0
-237 802 0
-237 234 0
238 -753 -17 0
-238 753 0
-238 17 0
239 -238 -803 0
-239 238 0
-239 803 0
240 -804 -237 0
-240 804 0
-240 237 0
241 -753 -1 0
-241 753 0
-241 1 0
242 -241 -33 0
-242 241 0
-242 33 0
243 -805 -240 0
-243 805 0
-243 240 0
244 -46 -714 0
-244 46 0
-244 714 0
245 -244 -709 0
-245 244 0
-245 709 0
246 -806 -243 0
-246 806 0
-246 243 0
247 -778 -33 0
-247 778 0
-247 33 0
248 -247 -762 0
-248 247 0
-248 762 0
249 -807 -246 0
-249 807 0
-249 246 0
250 -33 -10 0
-250 33 0
-250 10 0
251 -250 -13 0
-251 250 0
-251 13 0
252 -808 -249 0
-252 808 0
-252 249 0
253 -40 -736 0
-253 40 0
-253 736 0
254 -253 -712 0
-254 253 0
-254 712 0
255 -809 -252 0
-255 809 0
-255 252 0
256 -744 -30 0
-256 744 0
-256 30 0
257 -256 -23 0
-257 256 0
-257 23 0
258 -810 -255 0
-258 810 0
-258 255 0
259 -738 -30 0
-259 738 0
-259 30 0
260 -259 -18 0
-260 259 0
-260 18 0
261 -811 -258 0
-261 811 0
-261 258 0
262 -812 -785 0
-262 812 0
-262 785 0
263 -262 -813 0
-263 262 0
-263 813 0
264 -814 -261 0
-264 814 0
-264 261 0
265 -748 -757 0
-265 748 0
-265 757 0
266 -265 -11 0
-266 265 0
-266 11 0
267 -815 -264 0
-267 815 0
-267 264 0
268 -27 -716 0
-268 27 0
-268 716 0
269 -268 -5 0
-269 268 0
-269 5 0
270 -816 -267 0
-270 816 0
-270 267 0
271 -813 -718 0
-271 813 0
-271 718 0
272 -271 -13 0
-272 271 0
-272 13 0
273 -817 -270 0
-273 817 0
-273 270 0
274 -38 -757 0
-274 38 0
-274 757 0
275 -274 -761 0
-275 274 0
-275 761 0
276 -818 -273 0
-276 818 0
-276 273 0
277 -45 -741 0
-277 45 0
-277 741 0
278 -277 -13 0
-278 277 0
-278 13 0
279 -819 -276 0
-279 819 0
-279 276 0
280 -753 -22 0
-280 753 0
-280 22 0
281 -280 -46 0
-281 280 0
-281 46 0
282 -820 -279 0
-282 820 0
-282 279 0
283 -21 -718 0
-283 21 0
-283 718 0
284 -283 -34 0
-284 283 0
-284 34 0
285 -821 -282 0
-285 821 0
-285 282 0
286 -25 -709 0
-286 25 0
-286 709 0
287 -286 -698 0
-287 286 0
-287 698 0
288 -822 -285 0
-288 822 0
-288 285 0
289 -22 -730 0
-289 22 0
-289 730 0
290 -289 -738 0
-290 289 0
-290 738 0
291 -823 -288 0
-291 823 0
-291 288 0
292 -49 -711 0
-292 49 0
-292 711 0
293 -292 -5 0
-293 292 0
-293 5 0
294 -824 -291 0
-294 824 0
-294 291 0
295 -785 -722 0
-295 785 0
-295 722 0
296 -295 -3 0
-296 295 0
-296 3 0
297 -825 -294 0
-297 825 0
-297 294 0
298 -22 -712 0
-298 22 0
-298 712 0
299 -298 -11 0
-299 298 0
-299 11 0
300 -826 -297 0
-300 826 0
-300 297 0
301 -38 -6 0
-301 38 0
-301 6 0
302 -301 -5 0
-302 301 0
-302 5 0
303 -827 -300 0
-303 827 0
-303 300 0
304 -50 -734 0
-304 50 0
-304 734 0
305 -304 -34 0
-305 304 0
-305 34 0
306 -828 -303 0
-306 828 0
-306 303 0
307 -42 -15 0
-307 42 0
-307 15 0
308 -307 -21 0
-308 307 0
-308 21 0
309 -829 -306 0
-309 829 0
-309 306 0
310 -17 -711 0
-310 17 0
-310 711 0
311 -310 -721 0
-311 310 0
-311 721 0
312 -830 -309 0
-312 830 0
-312 309 0
313 -50 -17 0
-313 50 0
-313 17 0
314 -313 -46 0
-314 313 0
-314 46 0
315 -831 -312 0
-315 831 0
-315 312 0
316 -36 -762 0
-316 36 0
-316 762 0
317 -316 -5 0
-317 316 0
-317 5 0
318 -832 -315 0
-318 832 0
-318 315 0
319 -741 -699 0
-319 741 0
-319 699 0
320 -319 -721 0
-320 319 0
-320 721 0
321 -833 -318 0
-321 833 0
-321 318 0
322 -28 -6 0
-322 28 0
-322 6 0
323 -322 -736 0
-323 322 0
-323 736 0
324 -834 -321 0
-324 834 0
-324 321 0
325 -47 -27 0
-325 47 0
-325 27 0
326 -325 -712 0
-326 325 0
-326 712 0
327 -835 -324 0
-327 835 0
-327 324 0
328 -741 -785 0
-328 741 0
-328 785 0
329 -328 -767 0
-329 328 0
-329 767 0
330 -836 -327 0
-330 836 0
-330 327 0
331 -761 -768 0
-331 761 0
-331 768 0
332 -331 -11 0
-332 331 0
-332 11 0
333 -837 -330 0
-333 837 0
-333 330 0
334 -42 -31 0
-334 42 0
-334 31 0
335 -334 -16 0
-335 334 0
-335 16 0
336 -838 -333 0
-336 838 0
-336 333 0
337 -35 -22 0
-337 35 0
-337 22 0
338 -337 -839 0
-338 337 0
-338 839 0
339 -840 -336 0
-339 840 0
-339 336 0
340 -841 -725 0
-340 841 0
-340 725 0
341 -340 -37 0
-341 340 0
-341 37 0
342 -842 -339 0
-342 842 0
-342 339 0
343 -778 -2 0
-343 778 0
-343 2 0
344 -343 -27 0
-344 343 0
-344 27 0
345 -843 -342 0
-345 843 0
-345 342 0
346 -812 -4 0
-346 812 0
-346 4 0
347 -346 -31 0
-347 346 0
-347 31 0
348 -844 -345 0
-348 844 0
-348 345 0
349 -35 -15 0
-349 35 0
-349 15 0
350 -349 -845 0
-350 349 0
-350 845 0
351 -846 -348 0
-351 846 0
-351 348 0
352 -778 -1 0
-352 778 0
-352 1 0
353 -352 -714 0
-353 352 0
-353 714 0
354 -847 -351 0
-354 847 0
-354 351 0
355 -65 -741 0
-355 65 0
-355 741 0
356 -848 -354 0
-356 848 0
-356 354 0
357 -849 -7 0
-357 849 0
-357 7 0
358 -357 -13 0
-358 357 0
-358 13 0
359 -850 -356 0
-359 850 0
-359 356 0
360 -48 -703 0
-360 48 0
-360 703 0
361 -360 -845 0
-361 360 0
-361 845 0
362 -851 -359 0
-362 851 0
-362 359 0
363 -841 -38 0
-363 841 0
-363 38 0
364 -363 -19 0
-364 363 0
-364 19 0
365 -852 -362 0
-365 852 0
-365 362 0
366 -19 -699 0
-366 19 0
-366 699 0
367 -366 -704 0
-367 366 0
-367 704 0
368 -853 -365 0
-368 853 0
-368 365 0
369 -32 -31 0
-369 32 0
-369 31 0
370 -369 -23 0
-370 369 0
-370 23 0
371 -854 -368 0
-371 854 0
-371 368 0
372 -721 -716 0
-372 721 0
-372 716 0
373 -372 -13 0
-373 372 0
-373 13 0
374 -855 -371 0
-374 855 0
-374 371 0
375 -46 -2 0
-375 46 0
-375 2 0
376 -375 -790 0
-376 375 0
-376 790 0
377 -856 -374 0
-377 856 0
-377 374 0
378 -47 -13 0
-378 47 0
-378 13 0
379 -378 -726 0
-379 378 0
-379 726 0
380 -857 -377 0
-380 857 0
-380 377 0
381 -49 -725 0
-381 49 0
-381 725 0
382 -381 -707 0
-382 381 0
-382 707 0
383 -858 -380 0
-383 858 0
-383 380 0
384 -859 -839 0
-384 859 0
-384 839 0
385 -384 -704 0
-385 384 0
-385 704 0
386 -860 -383 0
-386 860 0
-386 383 0
387 -47 -1 0
-387 47 0
-387 1 0
388 -387 -31 0
-388 387 0
-388 31 0
389 -861 -386 0
-389 861 0
-389 386 0
390 -718 -775 0
-390 718 0
-390 775 0
391 -390 -32 0
-391 390 0
-391 32 0
392 -862 -389 0
-392 862 0
-392 389 0
393 -738 -757 0
-393 738 0
-393 757 0
394 -393 -726 0
-394 393 0
-394 726 0
395 -863 -392 0
-395 863 0
-395 392 0
396 -792 -25 0
-396 792 0
-396 25 0
397 -396 -813 0
-397 396 0
-397 813 0
398 -864 -395 0
-398 864 0
-398 395 0
399 -768 -10 0
-399 768 0
-399 10 0
400 -399 -698 0
-400 399 0
-400 698 0
401 -865 -398 0
-401 865 0
-401 398 0
402 -40 -718 0
-402 40 0
-402 718 0
403 -402 -761 0
-403 402 0
-403 761 0
404 -866 -401 0
-404 866 0
-404 401 0
405 -849 -702 0
-405 849 0
-405 702 0
406 -405 -19 0
-406 405 0
-406 19 0
407 -867 -404 0
-407 867 0
-407 404 0
408 -770 -8 0
-408 770 0
-408 8 0
409 -408 -707 0
-409 408 0
-409 707 0
410 -868 -407 0
-410 868 0
-410 407 0
411 -31 -716 0
-411 31 0
-411 716 0
412 -411 -719 0
-412 411 0
-412 719 0
413 -869 -410 0
-413 869 0
-413 410 0
414 -45 -38 0
-414 45 0
-414 38 0
415 -414 -7 0
-415 414 0
-415 7 0
416 -870 -413 0
-416 870 0
-416 413 0
417 -711 -8 0
-417 711 0
-417 8 0
418 -417 -726 0
-418 417 0
-418 726 0
419 -871 -416 0
-419 871 0
-419 416 0
420 -790 -734 0
-420 790 0
-420 734 0
421 -420 -11 0
-421 420 0
-421 11 0
422 -872 -419 0
-422 872 0
-422 419 0
423 -785 -10 0
-423 785 0
-423 10 0
424 -423 -716 0
-424 423 0
-424 716 0
425 -873 -422 0
-425 873 0
-425 422 0
426 -859 -14 0
-426 859 0
-426 14 0
427 -426 -698 0
-427 426 0
-427 698 0
428 -874 -425 0
-428 874 0
-428 425 0
429 -43 -15 0
-429 43 0
-429 15 0
430 -429 -11 0
-430 429 0
-430 11 0
431 -875 -428 0
-431 875 0
-431 428 0
432 -744 -2 0
-432 744 0
-432 2 0
433 -432 -738 0
-433 432 0
-433 738 0
434 -876 -431 0
-434 876 0
-434 431 0
435 -45 -762 0
-435 45 0
-435 762 0
436 -435 -7 0
-436 435 0
-436 7 0
437 -877 -434 0
-437 877 0
-437 434 0
438 -30 -25 0
-438 30 0
-438 25 0
439 -438 -10 0
-439 438 0
-439 10 0
440 -878 -437 0
-440 878 0
-440 437 0
441 -859 -771 0
-441 859 0
-441 771 0
442 -441 -41 0
-442 441 0
-442 41 0
443 -879 -440 0
-443 879 0
-443 440 0
444 -39 -721 0
-444 39 0
-444 721 0
445 -444 -23 0
-445 444 0
-445 23 0
446 -880 -443 0
-446 880 0
-446 443 0
447 -50 -25 0
-447 50 0
-447 25 0
448 -447 -44 0
-448 447 0
-448 44 0
449 -881 -446 0
-449 881 0
-449 446 0
450 -859 -28 0
-450 859 0
-450 28 0
451 -450 -765 0
-451 450 0
-451 765 0
452 -882 -449 0
-452 882 0
-452 449 0
453 -841 -736 0
-453 841 0
-453 736 0
454 -453 -712 0
-454 453 0
-454 712 0
455 -883 -452 0
-455 883 0
-455 452 0
456 -34 -12 0
-456 34 0
-456 12 0
457 -456 -722 0
-457 456 0
-457 722 0
458 -884 -455 0
-458 884 0
-458 455 0
459 -738 -721 0
-459 738 0
-459 721 0
460 -459 -19 0
-460 459 0
-460 19 0
461 -885 -458 0
-461 885 0
-461 458 0
462 -859 -778 0
-462 859 0
-462 778 0
463 -462 -767 0
-463 462 0
-463 767 0
464 -886 -461 0
-464 886 0
-464 461 0
465 -48 -757 0
-465 48 0
-465 757 0
466 -465 -849 0
-466 465 0
-466 849 0
467 -887 -464 0
-467 887 0
-467 464 0
468 -721 -711 0
-468 721 0
-468 711 0
469 -468 -800 0
-469 468 0
-469 800 0
470 -888 -467 0
-470 888 0
-470 467 0
471 -738 -734 0
-471 738 0
-471 734 0
472 -471 -707 0
-472 471 0
-472 707 0
473 -889 -470 0
-473 889 0
-473 470 0
474 -47 -6 0
-474 47 0
-474 6 0
475 -474 -32 0
-475 474 0
-475 32 0
476 -890 -473 0
-476 890 0
-476 473 0
477 -757 -712 0
-477 757 0
-477 712 0
478 -477 -5 0
-478 477 0
-478 5 0
479 -891 -476 0
-479 891 0
-479 476 0
480 -42 -767 0
-480 42 0
-480 767 0
481 -480 -41 0
-481 480 0
-481 41 0
482 -892 -479 0
-482 892 0
-482 479 0
483 -145 -32 0
-483 145 0
-483 32 0
484 -893 -482 0
-484 893 0
-484 482 0
485 -50 -744 0
-485 50 0
-485 744 0
486 -485 -31 0
-486 485 0
-486 31 0
487 -894 -484 0
-487 894 0
-487 484 0
488 -812 -1 0
-488 812 0
-488 1 0
489 -488 -765 0
-489 488 0
-489 765 0
490 -895 -487 0
-490 895 0
-490 487 0
491 -792 -29 0
-491 792 0
-491 29 0
492 -491 -19 0
-492 491 0
-492 19 0
493 -896 -490 0
-493 896 0
-493 490 0
494 -40 -16 0
-494 40 0
-494 16 0
495 -494 -23 0
-495 494 0
-495 23 0
496 -897 -493 0
-496 897 0
-496 493 0
497 -40 -28 0
-497 40 0
-497 28 0
498 -497 -7 0
-498 497 0
-498 7 0
499 -898 -496 0
-499 898 0
-499 496 0
500 -699 -1 0
-500 699 0
-500 1 0
501 -500 -845 0
-501 500 0
-501 845 0
502 -899 -499 0
-502 899 0
-502 499 0
503 -785 -29 0
-503 785 0
-503 29 0
504 -503 -23 0
-504 503 0
-504 23 0
505 -900 -502 0
-505 900 0
-505 502 0
506 -37 -736 0
-506 37 0
-506 736 0
507 -506 -698 0
-507 506 0
-507 698 0
508 -901 -505 0
-508 901 0
-508 505 0
509 -721 -775 0
-509 721 0
-509 775 0
510 -509 -736 0
-510 509 0
-510 736 0
511 -902 -508 0
-511 902 0
-511 508 0
512 -48 -8 0
-512 48 0
-512 8 0
513 -512 -722 0
-513 512 0
-513 722 0
514 -903 -511 0
-514 903 0
-514 511 0
515 -768 -28 0
-515 768 0
-515 28 0
516 -515 -5 0
-516 515 0
-516 5 0
517 -904 -514 0
-517 904 0
-517 514 0
518 -778 -741 0
-518 778 0
-518 741 0
519 -518 -714 0
-519 518 0
-519 714 0
520 -905 -517 0
-520 905 0
-520 517 0
521 -725 -711 0
-521 725 0
-521 711 0
522 -521 -18 0
-522 521 0
-522 18 0
523 -906 -520 0
-523 906 0
-523 520 0
524 -12 -704 0
-524 12 0
-524 704 0
525 -524 -813 0
-525 524 0
-525 813 0
526 -907 -523 0
-526 907 0
-526 523 0
527 -778 -775 0
-527 778 0
-527 775 0
528 -527 -5 0
-528 527 0
-528 5 0
529 -908 -526 0
-529 908 0
-529 526 0
530 -812 -26 0
-530 812 0
-530 26 0
531 -530 -722 0
-531 530 0
-531 722 0
532 -909 -529 0
-532 909 0
-532 529 0
533 -49 -12 0
-533 49 0
-533 12 0
534 -533 -698 0
-534 533 0
-534 698 0
535 -910 -532 0
-535 910 0
-535 532 0
536 -778 -748 0
-536 778 0
-536 748 0
537 -536 -768 0
-537 536 0
-537 768 0
538 -911 -535 0
-538 911 0
-538 535 0
539 -352 -38 0
-539 352 0
-539 38 0
540 -912 -538 0
-540 912 0
-540 538 0
541 -718 -711 0
-541 718 0
-541 711 0
542 -541 -22 0
-542 541 0
-542 22 0
543 -913 -540 0
-543 913 0
-543 540 0
544 -771 -734 0
-544 771 0
-544 734 0
545 -544 -21 0
-545 544 0
-545 21 0
546 -914 -543 0
-546 914 0
-546 543 0
547 -721 -4 0
-547 721 0
-547 4 0
548 -547 -9 0
-548 547 0
-548 9 0
549 -915 -546 0
-549 915 0
-549 546 0
550 -711 -9 0
-550 711 0
-550 9 0
551 -550 -698 0
-551 550 0
-551 698 0
552 -916 -549 0
-552 916 0
-552 549 0
553 -46 -706 0
-553 46 0
-553 706 0
554 -553 -722 0
-554 553 0
-554 722 0
555 -917 -552 0
-555 917 0
-555 552 0
556 -49 -25 0
-556 49 0
-556 25 0
557 -556 -722 0
-557 556 0
-557 722 0
558 -918 -555 0
-558 918 0
-558 555 0
559 -744 -716 0
-559 744 0
-559 716 0
560 -559 -34 0
-560 559 0
-560 34 0
561 -919 -558 0
-561 919 0
-561 558 0
562 -761 -31 0
-562 761 0
-562 31 0
563 -562 -3 0
-563 562 0
-563 3 0
564 -920 -561 0
-564 920 0
-564 561 0
565 -24 -14 0
-565 24 0
-565 14 0
566 -565 -27 0
-566 565 0
-566 27 0
567 -921 -564 0
-567 921 0
-567 564 0
568 -27 -18 0
-568 27 0
-568 18 0
569 -568 -716 0
-569 568 0
-569 716 0
570 -922 -567 0
-570 922 0
-570 567 0
571 -47 -753 0
-571 47 0
-571 753 0
572 -571 -734 0
-572 571 0
-572 734 0
573 -923 -570 0
-573 923 0
-573 570 0
574 -790 -738 0
-574 790 0
-574 738 0
575 -574 -712 0
-575 574 0
-575 712 0
576 -924 -573 0
-576 924 0
-576 573 0
577 -768 -1 0
-577 768 0
-577 1 0
578 -577 -712 0
-578 577 0
-578 712 0
579 -925 -576 0
-579 925 0
-579 576 0
580 -796 -748 0
-580 796 0
-580 748 0
581 -580 -800 0
-581 580 0
-581 800 0
582 -926 -579 0
-582 926 0
-582 579 0
583 -796 -761 0
-583 796 0
-583 761 0
584 -583 -23 0
-584 583 0
-584 23 0
585 -927 -582 0
-585 927 0
-585 582 0
586 -36 -8 0
-586 36 0
-586 8 0
587 -586 -712 0
-587 586 0
-587 712 0
588 -928 -585 0
-588 928 0
-588 585 0
589 -768 -27 0
-589 768 0
-589 27 0
590 -589 -790 0
-590 589 0
-590 790 0
591 -929 -588 0
-591 929 0
-591 588 0
592 -812 -6 0
-592 812 0
-592 6 0
593 -592 -34 0
-593 592 0
-593 34 0
594 -930 -591 0
-594 930 0
-594 591 0
595 -841 -48 0
-595 841 0
-595 48 0
596 -595 -9 0
-596 595 0
-596 9 0
597 -931 -594 0
-597 931 0
-597 594 0
598 -792 -778 0
-598 792 0
-598 778 0
599 -598 -16 0
-599 598 0
-599 16 0
600 -932 -597 0
-600 932 0
-600 597 0
601 -748 -703 0
-601 748 0
-601 703 0
602 -601 -770 0
-602 601 0
-602 770 0
603 -933 -600 0
-603 933 0
-603 600 0
604 -778 -40 0
-604 778 0
-604 40 0
605 -604 -800 0
-605 604 0
-605 800 0
606 -934 -603 0
-606 934 0
-606 603 0
607 -39 -38 0
-607 39 0
-607 38 0
608 -607 -9 0
-608 607 0
-608 9 0
609 -935 -606 0
-609 935 0
-609 606 0
610 -39 -725 0
-610 39 0
-610 725 0
611 -610 -698 0
-611 610 0
-611 698 0
612 -936 -609 0
-612 936 0
-612 609 0
613 -790 -721 0
-613 790 0
-613 721 0
614 -613 -3 0
-614 613 0
-614 3 0
615 -937 -612 0
-615 937 0
-615 612 0
616 -41 -699 0
-616 41 0
-616 699 0
617 -616 -702 0
-617 616 0
-617 702 0
618 -938 -615 0
-618 938 0
-618 615 0
619 -42 -6 0
-619 42 0
-619 6 0
620 -619 -734 0
-620 619 0
-620 734 0
621 -939 -618 0
-621 939 0
-621 618 0
622 -770 -762 0
-622 770 0
-622 762 0
623 -622 -26 0
-623 622 0
-623 26 0
624 -940 -621 0
-624 940 0
-624 621 0
625 -48 -25 0
-625 48 0
-625 25 0
626 -625 -21 0
-626 625 0
-626 21 0
627 -941 -624 0
-627 941 0
-627 624 0
628 -725 -14 0
-628 725 0
-628 14 0
629 -628 -9 0
-629 628 0
-629 9 0
630 -942 -627 0
-630 942 0
-630 627 0
631 -849 -734 0
-631 849 0
-631 734 0
632 -631 -712 0
-632 631 0
-632 712 0
633 -943 -630 0
-633 943 0
-633 630 0
634 -33 -732 0
-634 33 0
-634 732 0
635 -634 -803 0
-635 634 0
-635 803 0
636 -944 -633 0
-636 944 0
-636 633 0
637 -25 -6 0
-637 25 0
-637 6 0
638 -637 -17 0
-638 637 0
-638 17 0
639 -945 -636 0
-639 945 0
-639 636 0
640 -40 -25 0
-640 40 0
-640 25 0
641 -640 -762 0
-641 640 0
-641 762 0
642 -946 -639 0
-642 946 0
-642 639 0
643 -36 -706 0
-643 36 0
-643 706 0
644 -643 -849 0
-644 643 0
-644 849 0
645 -947 -642 0
-645 947 0
-645 642 0
646 -792 -38 0
-646 792 0
-646 38 0
647 -646 -22 0
-647 646 0
-647 22 0
648 -948 -645 0
-648 948 0
-648 645 0
649 -43 -748 0
-649 43 0
-649 748 0
650 -649 -26 0
-650 649 0
-650 26 0
651 -949 -648 0
-651 949 0
-651 648 0
652 -462 -706 0
-652 462 0
-652 706 0
653 -950 -651 0
-653 950 0
-653 651 0
654 -27 -4 0
-654 27 0
-654 4 0
655 -654 -707 0
-655 654 0
-655 707 0
656 -951 -653 0
-656 951 0
-656 653 0
657 -24 -8 0
-657 24 0
-657 8 0
658 -657 -813 0
-658 657 0
-658 813 0
659 -952 -656 0
-659 952 0
-659 656 0
660 -450 -721 0
-660 450 0
-660 721 0
661 -953 -659 0
-661 953 0
-661 659 0
662 -45 -771 0
-662 45 0
-662 771 0
663 -662 -26 0
-663 662 0
-663 26 0
664 -954 -661 0
-664 954 0
-664 661 0
665 -767 -703 0
-665 767 0
-665 703 0
666 -665 -698 0
-666 665 0
-666 698 0
667 -955 -664 0
-667 955 0
-667 664 0
668 -30 -711 0
-668 30 0
-668 711 0
669 -668 -761 0
-669 668 0
-669 761 0
670 -956 -667 0
-670 956 0
-670 667 0
671 -744 -37 0
-671 744 0
-671 37 0
672 -671 -707 0
-672 671 0
-672 707 0
673 -957 -670 0
-673 957 0
-673 670 0
674 -19 -5 0
-674 19 0
-674 5 0
675 -674 -726 0
-675 674 0
-675 726 0
676 -958 -673 0
-676 958 0
-676 673 0
677 -730 -706 0
-677 730 0
-677 706 0
678 -677 -707 0
-678 677 0
-678 707 0
679 -959 -676 0
-679 959 0
-679 676 0
680 -770 -36 0
-680 770 0
-680 36 0
681 -680 -24 0
-681 680 0
-681 24 0
682 -960 -679 0
-682 960 0
-682 679 0
683 -757 -7 0
-683 757 0
-683 7 0
684 -683 -16 0
-684 683 0
-684 16 0
685 -961 -682 0
-685 961 0
-685 682 0
686 -50 -748 0
-686 50 0
-686 748 0
687 -686 -726 0
-687 686 0
-687 726 0
688 -962 -685 0
-688 962 0
-688 685 0
689 -792 -730 0
-689 792 0
-689 730 0
690 -689 -7 0
-690 689 0
-690 7 0
691 -963 -688 0
-691 963 0
-691 688 0
692 -771 -702 0
-692 771 0
-692 702 0
693 -692 -796 0
-693 692 0
-693 796 0
694 -964 -691 0
-694 964 0
-694 691 0
695 -43 -19 0
-695 43 0
-695 19 0
696 -695 -790 0
-696 695 0
-696 790 0
697 -965 -694 0
-697 965 0
-697 694 0
-698 -3 0
698 3 0
-699 -4 0
699 4 0
-700 -54 0
700 54 0
-701 -52 0
701 52 0
-702 -7 0
702 7 0
-703 -6 0
703 6 0
-704 -8 0
704 8 0
-705 -57 0
705 57 0
-706 -10 0
706 10 0
-707 -11 0
707 11 0
-708 -60 0
708 60 0
-709 -13 0
709 13 0
-710 -63 0
710 63 0
-711 -14 0
711 14 0
-712 -16 0
712 16 0
-713 -66 0
713 66 0
-714 -17 0
714 17 0
-715 -69 0
715 69 0
-716 -19 0
716 19 0
-717 -72 0
717 72 0
-718 -20 0
718 20 0
-719 -21 0
719 21 0
-720 -75 0
720 75 0
-721 -22 0
721 22 0
-722 -23 0
722 23 0
-723 -78 0
723 78 0
-724 -81 0
724 81 0
-725 -25 0
725 25 0
-726 -26 0
726 26 0
-727 -84 0
727 84 0
-728 -87 0
728 87 0
-729 -90 0
729 90 0
-730 -15 0
730 15 0
-731 -93 0
731 93 0
-732 -12 0
732 12 0
-733 -96 0
733 96 0
-734 -1 0
734 1 0
-735 -99 0
735 99 0
-736 -24 0
736 24 0
-737 -102 0
737 102 0
-738 -32 0
738 32 0
-739 -105 0
739 105 0
-740 -108 0
740 108 0
-741 -36 0
741 36 0
-742 -111 0
742 111 0
-743 -113 0
743 113 0
-744 -38 0
744 38 0
-745 -116 0
745 116 0
-746 -119 0
746 119 0
-747 -122 0
747 122 0
-748 -39 0
748 39 0
-749 -125 0
749 125 0
-750 -128 0
750 128 0
-751 -131 0
751 131 0
-752 -134 0
752 134 0
-753 -42 0
753 42 0
-754 -137 0
754 137 0
-755 -140 0
755 140 0
-756 -143 0
756 143 0
-757 -28 0
757 28 0
-758 -146 0
758 146 0
-759 -149 0
759 149 0
-760 -152 0
760 152 0
-761 -43 0
761 43 0
-762 -9 0
762 9 0
-763 -155 0
763 155 0
-764 -158 0
764 158 0
-765 -18 0
765 18 0
-766 -161 0
766 161 0
-767 -27 0
767 27 0
-768 -37 0
768 37 0
-769 -164 0
769 164 0
-770 -45 0
770 45 0
-771 -40 0
771 40 0
-772 -167 0
772 167 0
-773 -170 0
773 170 0
-774 -173 0
774 173 0
-775 -2 0
775 2 0
-776 -176 0
776 176 0
-777 -179 0
777 179 0
-778 -47 0
778 47 0
-779 -182 0
779 182 0
-780 -185 0
780 185 0
-781 -188 0
781 188 0
-782 -191 0
782 191 0
-783 -194 0
783 194 0
-784 -197 0
784 197 0
-785 -30 0
785 30 0
-786 -200 0
786 200 0
-787 -203 0
787 203 0
-788 -206 0
788 206 0
-789 -209 0
789 209 0
-790 -44 0
790 44 0
-791 -212 0
791 212 0
-792 -49 0
792 49 0
-793 -215 0
793 215 0
-794 -218 0
794 218 0
-795 -221 0
795 221 0
-796 -46 0
796 46 0
-797 -224 0
797 224 0
-798 -227 0
798 227 0
-799 -230 0
799 230 0
-800 -5 0
800 5 0
-801 -233 0
801 233 0
-802 -236 0
802 236 0
-803 -31 0
803 31 0
-804 -239 0
804 239 0
-805 -242 0
805 242 0
-806 -245 0
806 245 0
-807 -248 0
807 248 0
-808 -251 0
808 251 0
-809 -254 0
809 254 0
-810 -257 0
810 257 0
-811 -260 0
811 260 0
-812 -35 0
812 35 0
-813 -34 0
813 34 0
-814 -263 0
814 263 0
-815 -266 0
815 266 0
-816 -269 0
816 269 0
-817 -272 0
817 272 0
-818 -275 0
818 275 0
-819 -278 0
819 278 0
-820 -281 0
820 281 0
-821 -284 0
821 284 0
-822 -287 0
822 287 0
-823 -290 0
823 290 0
-824 -293 0
824 293 0
-825 -296 0
825 296 0
-826 -299 0
826 299 0
-827 -302 0
827 302 0
-828 -305 0
828 305 0
-829 -308 0
829 308 0
-830 -311 0
830 311 0
-831 -314 0
831 314 0
-832 -317 0
832 317 0
-833 -320 0
833 320 0
-834 -323 0
834 323 0
-835 -326 0
835 326 0
-836 -329 0
836 329 0
-837 -332 0
837 332 0
-838 -335 0
838 335 0
-839 -41 0
839 41 0
-840 -338 0
840 338 0
-841 -50 0
841 50 0
-842 -341 0
842 341 0
-843 -344 0
843 344 0
-844 -347 0
844 347 0
-845 -33 0
845 33 0
-846 -350 0
846 350 0
-847 -353 0
847 353 0
-848 -355 0
848 355 0
-849 -29 0
849 29 0
-850 -358 0
850 358 0
-851 -361 0
851 361 0
-852 -364 0
852 364 0
-853 -367 0
853 367 0
-854 -370 0
854 370 0
-855 -373 0
855 373 0
-856 -376 0
856 376 0
-857 -379 0
857 379 0
-858 -382 0
858 382 0
-859 -48 0
859 48 0
-860 -385 0
860 385 0
-861 -388 0
861 388 0
-862 -391 0
862 391 0
-863 -394 0
863 394 0
-864 -397 0
864 397 0
-865 -400 0
865 400 0
-866 -403 0
866 403 0
-867 -406 0
867 406 0
-868 -409 0
868 409 0
-869 -412 0
869 412 0
-870 -415 0
870 415 0
-871 -418 0
871 418 0
-872 -421 0
872 421 0
-873 -424 0
873 424 0
-874 -427 0
874 427 0
-875 -430 0
875 430 0
-876 -433 0
876 433 0
-877 -436 0
877 436 0
-878 -439 0
878 439 0
-879 -442 0
879 442 0
-880 -445 0
880 445 0
-881 -448 0
881 448 0
-882 -451 0
882 451 0
-883 -454 0
883 454 0
-884 -457 0
884 457 0
-885 -460 0
885 460 0
-886 -463 0
886 463 0
-887 -466 0
887 466 0
-888 -469 0
888 469 0
-889 -472 0
889 472 0
-890 -475 0
890 475 0
-891 -478 0
891 478 0
-892 -481 0
892 481 0
-893 -483 0
893 483 0
-894 -486 0
894 486 0
-895 -489 0
895 489 0
-896 -492 0
896 492 0
-897 -495 0
897 495 0
-898 -498 0
898 498 0
-899 -501 0
899 501 0
-900 -504 0
900 504 0
-901 -507 0
901 507 0
-902 -510 0
902 510 0
-903 -513 0
903 513 0
-904 -516 0
904 516 0
-905 -519 0
905 519 0
-906 -522 0
906 522 0
-907 -525 0
907 525 0
-908 -528 0
908 528 0
-909 -531 0
909 531 0
-910 -534 0
910 534 0
-911 -537 0
911 537 0
-912 -539 0
912 539 0
-913 -542 0
913 542 0
-914 -545 0
914 545 0
-915 -548 0
915 548 0
-916 -551 0
916 551 0
-917 -554 0
917 554 0
-918 -557 0
918 557 0
-919 -560 0
919 560 0
-920 -563 0
920 563 0
-921 -566 0
921 566 0
-922 -569 0
922 569 0
-923 -572 0
923 572 0
-924 -575 0
924 575 0
-925 -578 0
925 578 0
-926 -581 0
926 581 0
-927 -584 0
927 584 0
-928 -587 0
928 587 0
-929 -590 0
929 590 0
-930 -593 0
930 593 0
-931 -596 0
931 596 0
-932 -599 0
932 599 0
-933 -602 0
933 602 0
-934 -605 0
934 605 0
-935 -608 0
935 608 0
-936 -611 0
936 611 0
-937 -614 0
937 614 0
-938 -617 0
938 617 0
-939 -620 0
939 620 0
-940 -623 0
940 623 0
-941 -626 0
941 626 0
-942 -629 0
942 629 0
-943 -632 0
943 632 0
-944 -635 0
944 635 0
-945 -638 0
945 638 0
-946 -641 0
946 641 0
-947 -644 0
947 644 0
-948 -647 0
948 647 0
-949 -650 0
949 650 0
-950 -652 0
950 652 0
-951 -655 0
951 655 0
-952 -658 0
952 658 0
-953 -660 0
953 660 0
-954 -663 0
954 663 0
-955 -666 0
955 666 0
-956 -669 0
956 669 0
-957 -672 0
957 672 0
-958 -675 0
958 675 0
-959 -678 0
959 678 0
-960 -681 0
960 681 0
-961 -684 0
961 684 0
-962 -687 0
962 687 0
-963 -690 0
963 690 0
-964 -693 0
964 693 0
-965 -696 0
965 696 0
697 0
